p cnf 10 15
-12 -13 -17 -23 0
-8 -9 -13 -19 0
-4 -5 -13 -19 0
-4 -5 -9 -15 0
-4 -5 -9 -19 0
-4 -5 -17 -23 0
-4 -5 -9 -23 0
-4 -9 -17 -23 0
-8 -9 -17 -23 0
-8 -13 -17 -23 0
-8 -9 -13 -23 0
-4 -5 -13 -23 0
-4 -13 -17 -23 0
-4 -9 -13 -23 0
-4 -9 -13 -19 0
